
--- Job Doptimal_MINLP.gms Start 03/20/19 09:41:16 25.1.3 r4e34d435fbd WEX-WEI x86 64bit/MS Windows
GAMS 25.1.3   Copyright (C) 1987-2018 GAMS Development. All rights reserved
Licensee: GAMS Development Corporation, USA              G871201/0000CA-ANY
          Free Demo, +1 202-342-0180, support@gams.com, www.gams.com DC0000
--- Starting compilation
--- Doptimal_MINLP.gms(142) 3 Mb
--- GDXin=C:\Users\AVazquezAlcocer.AD\Dropbox\SDP for Constructing Designs\MINL_PROBLEMS\Mixture\in.gdx
--- Doptimal_MINLP.gms(190) 3 Mb
--- Starting execution: elapsed 0:00:00.005
--- Doptimal_MINLP.gms(174) 4 Mb
--- Generating MINLP model D_opt
--- Doptimal_MINLP.gms(185) 6 Mb
---   59 rows  68 columns  340 non-zeroes
---   490 nl-code  243 nl-non-zeroes
---   7 discrete-columns
--- Doptimal_MINLP.gms(185) 4 Mb
--- Executing SCIP: elapsed 0:00:00.028

SCIP             25.1.3 r4e34d435fbd Released Oct 30, 2018 WEI x86 64bit/MS Wi
SCIP version 5.0 (1d9c207)
Copyright (C) 2002-2018 Konrad-Zuse-Zentrum fuer Informationstechnik Berlin (ZIB)

External codes: 
  CPLEX 12.8.0.0       Linear Programming Solver developed by IBM (www.cplex.com)
  CppAD 20160000.1     Algorithmic Differentiation of C++ algorithms developed by B. Bell (www.coin-or.org/CppAD)
  Ipopt 3.12           Interior Point Optimizer developed by A. Waechter et.al. (www.coin-or.org/Ipopt)
  HSL MA27 and MC19    Harwell Subroutine Libraries (www.hsl.rl.ac.uk) from commercially supported Ipopt

reading option file C:\Users\AVazquezAlcocer.AD\Dropbox\SDP for Constructing Designs\MINL_PROBLEMS\Mixture\scip.opt
[../../../ThirdParty/SCIP/scip/src/scip/paramset.c:2565] ERROR: cannot open file <C:\Users\AVazquezAlcocer.AD\Dropbox\SDP for Constructing Designs\MINL_PROBLEMS\Mixture\scip.opt> for reading
C:\Users\AVazquezAlcocer.AD\Dropbox\SDP for Constructing Designs\MINL_PROBLEMS\Mixture\scip.opt: No such file or directory
[../../../ThirdParty/SCIP/scip/src/scip/set.c:3253] ERROR: Error <-4> in function call
[../../../ThirdParty/SCIP/scip/src/scip/scip.c:4953] ERROR: Error <-4> in function call
Reading of optionfile C:\Users\AVazquezAlcocer.AD\Dropbox\SDP for Constructing Designs\MINL_PROBLEMS\Mixture\scip.opt failed with SCIP return code <-4>!
non-default parameter settings:
limits/time = 14400
limits/gap = 1e-05
limits/absgap = 1e-06
lp/threads = 1
misc/printreason = FALSE
misc/usesymmetry = 0
timing/clocktype = 2
display/nfrac/active = 2
display/nexternbranchcands/active = 2

original problem has 68 variables (7 bin, 0 int, 61 cont) and 59 constraints

all 1 solutions given by solution candidate storage are infeasible

presolving:
(round 1, fast)       24 del vars, 25 del conss, 0 add conss, 77 chg bounds, 0 chg sides, 0 chg coeffs, 1 upgd conss, 0 impls, 6 clqs
(round 2, fast)       24 del vars, 25 del conss, 0 add conss, 87 chg bounds, 0 chg sides, 0 chg coeffs, 1 upgd conss, 0 impls, 6 clqs
(round 3, fast)       24 del vars, 25 del conss, 63 add conss, 87 chg bounds, 0 chg sides, 0 chg coeffs, 1 upgd conss, 0 impls, 6 clqs
(round 4, fast)       24 del vars, 25 del conss, 63 add conss, 87 chg bounds, 0 chg sides, 0 chg coeffs, 73 upgd conss, 0 impls, 6 clqs
(round 5, fast)       24 del vars, 25 del conss, 63 add conss, 213 chg bounds, 0 chg sides, 0 chg coeffs, 73 upgd conss, 0 impls, 6 clqs
(round 6, exhaustive) 24 del vars, 25 del conss, 63 add conss, 213 chg bounds, 0 chg sides, 0 chg coeffs, 79 upgd conss, 0 impls, 6 clqs
   (0.0s) probing cycle finished: starting next cycle
presolving (7 rounds: 7 fast, 2 medium, 2 exhaustive):
 24 deleted vars, 25 deleted constraints, 63 added constraints, 213 tightened bounds, 0 added holes, 0 changed sides, 0 changed coefficients
 182 implications, 21 cliques
presolved problem has 107 variables (7 bin, 0 int, 0 impl, 100 cont) and 97 constraints
      6 constraints of type <setppc>
      7 constraints of type <linear>
     22 constraints of type <abspower>
     61 constraints of type <quadratic>
      1 constraints of type <nonlinear>
Presolving Time: 0.00

 time | node  | left  |LP iter|LP it/n| mem |mdpt |frac |extbr|vars |cons |rows |cuts |confs|strbr|  dualbound   | primalbound  |  gap   
  0.0s|     1 |     0 |    93 |     - |1726k|   0 |   7 |   0 | 107 |  97 | 255 |   0 |   0 |   0 | 9.500006e-09 |      --      |    Inf 
U 0.0s|     1 |     0 |   100 |     - |1803k|   0 |   7 |   0 | 107 |  97 | 255 |   0 |   0 |   0 | 9.500006e-09 |-3.010147e+01 |    Inf 

******************************************************************************
This program contains Ipopt, a library for large-scale nonlinear optimization.
 Ipopt is released as open source code under the Eclipse Public License (EPL).
         For more information visit http://projects.coin-or.org/Ipopt
******************************************************************************

s 0.0s|     1 |     0 |   100 |     - |1803k|   0 |   7 |   0 | 107 |  97 | 255 |   0 |   0 |   0 | 9.500006e-09 |-2.022985e+00 |    Inf 
  0.0s|     1 |     0 |   128 |     - |1842k|   0 |   1 |   0 | 107 |  97 | 263 |   8 |   0 |   0 |-2.937647e-01 |-2.022985e+00 | 588.64%
  0.0s|     1 |     0 |   128 |     - |1845k|   0 |   1 |   0 | 107 |  97 | 221 |   8 |   0 |   0 |-2.937647e-01 |-2.022985e+00 | 588.64%
  0.0s|     1 |     0 |   167 |     - |1867k|   0 |   0 |   0 | 107 |  97 | 227 |  14 |   0 |   0 |-6.315701e-01 |-2.022985e+00 | 220.31%
  0.0s|     1 |     0 |   167 |     - |1867k|   0 |   0 |   0 | 107 |  97 | 227 |  14 |   0 |   0 |-6.315701e-01 |-2.022985e+00 | 220.31%
  0.0s|     1 |     0 |   186 |     - |1867k|   0 |   0 |   0 | 107 |  97 | 235 |  22 |   0 |   0 |-9.943307e-01 |-2.022985e+00 | 103.45%
  0.0s|     1 |     0 |   186 |     - |1867k|   0 |   0 |   0 | 107 |  97 | 235 |  22 |   0 |   0 |-9.943307e-01 |-2.022985e+00 | 103.45%
  0.0s|     1 |     0 |   202 |     - |1875k|   0 |   0 |   0 | 107 |  97 | 242 |  29 |   0 |   0 |-1.167363e+00 |-2.022985e+00 |  73.30%
  0.0s|     1 |     0 |   202 |     - |1875k|   0 |   0 |   0 | 107 |  97 | 242 |  29 |   0 |   0 |-1.167363e+00 |-2.022985e+00 |  73.30%
  0.0s|     1 |     0 |   230 |     - |1875k|   0 |   7 |   0 | 107 |  97 | 245 |  32 |   0 |   0 |-1.441565e+00 |-2.022985e+00 |  40.33%
  0.0s|     1 |     0 |   230 |     - |1878k|   0 |   7 |   0 | 107 |  97 | 245 |  32 |   0 |   0 |-1.441565e+00 |-2.022985e+00 |  40.33%
  0.0s|     1 |     0 |   241 |     - |1906k|   0 |   1 |   0 | 107 |  97 | 250 |  37 |   0 |   0 |-1.460597e+00 |-2.022985e+00 |  38.50%
  0.0s|     1 |     0 |   256 |     - |1934k|   0 |   4 |   0 | 107 |  97 | 255 |  42 |   0 |   0 |-1.518057e+00 |-2.022985e+00 |  33.26%
 time | node  | left  |LP iter|LP it/n| mem |mdpt |frac |extbr|vars |cons |rows |cuts |confs|strbr|  dualbound   | primalbound  |  gap   
  0.0s|     1 |     0 |   256 |     - |1934k|   0 |   4 |   0 | 107 |  97 | 255 |  42 |   0 |   0 |-1.518057e+00 |-2.022985e+00 |  33.26%
  0.0s|     1 |     0 |   268 |     - |1965k|   0 |   4 |   0 | 107 |  97 | 259 |  46 |   0 |   0 |-1.562336e+00 |-2.022985e+00 |  29.48%
  0.0s|     1 |     0 |   268 |     - |1968k|   0 |   4 |   0 | 107 |  97 | 259 |  46 |   0 |   0 |-1.562336e+00 |-2.022985e+00 |  29.48%
  0.0s|     1 |     0 |   294 |     - |1994k|   0 |   1 |   0 | 107 |  97 | 262 |  49 |   0 |   0 |-1.600679e+00 |-2.022985e+00 |  26.38%
  0.0s|     1 |     0 |   294 |     - |1997k|   0 |   1 |   0 | 107 |  97 | 262 |  49 |   0 |   0 |-1.600679e+00 |-2.022985e+00 |  26.38%
  0.0s|     1 |     0 |   310 |     - |2022k|   0 |   2 |   0 | 107 |  97 | 266 |  53 |   0 |   0 |-1.605281e+00 |-2.022985e+00 |  26.02%
  0.0s|     1 |     0 |   317 |     - |2058k|   0 |   2 |   0 | 107 |  97 | 268 |  55 |   0 |   0 |-1.606318e+00 |-2.022985e+00 |  25.94%
  0.0s|     1 |     0 |   344 |     - |2087k|   0 |   2 |   0 | 107 |  97 | 273 |  60 |   0 |   0 |-1.616196e+00 |-2.022985e+00 |  25.17%
  0.0s|     1 |     0 |   360 |     - |2118k|   0 |   2 |   0 | 107 |  97 | 276 |  63 |   0 |   0 |-1.616927e+00 |-2.022985e+00 |  25.11%
  0.0s|     1 |     0 |   369 |     - |2146k|   0 |   2 |   0 | 107 |  97 |  97 |  67 |   0 |   0 |-1.616927e+00 |-2.022985e+00 |  25.11%
  0.0s|     1 |     0 |   369 |     - |2146k|   0 |   2 |   0 | 107 |  97 |  97 |  67 |   0 |   0 |-1.620111e+00 |-2.022985e+00 |  24.87%
  0.0s|     1 |     0 |   377 |     - |2158k|   0 |   2 |   0 | 107 |  97 | 100 |  70 |   0 |   0 |-1.620912e+00 |-2.022985e+00 |  24.81%
  0.0s|     1 |     0 |   384 |     - |2229k|   0 |   2 |   0 | 107 |  97 | 104 |  74 |   0 |   0 |-1.620912e+00 |-2.022985e+00 |  24.81%
  0.0s|     1 |     0 |   384 |     - |2229k|   0 |   2 |   0 | 107 |  97 | 104 |  74 |   0 |   0 |-1.622934e+00 |-2.022985e+00 |  24.65%
  0.0s|     1 |     0 |   384 |     - |2229k|   0 |   2 |   0 | 107 |  97 | 104 |  74 |   0 |   0 |-1.622934e+00 |-2.022985e+00 |  24.65%
 time | node  | left  |LP iter|LP it/n| mem |mdpt |frac |extbr|vars |cons |rows |cuts |confs|strbr|  dualbound   | primalbound  |  gap   
  0.0s|     1 |     0 |   391 |     - |2239k|   0 |   2 |   0 | 107 |  97 | 107 |  77 |   0 |   0 |-1.622934e+00 |-2.022985e+00 |  24.65%
  0.0s|     1 |     0 |   391 |     - |2239k|   0 |   2 |   0 | 107 |  97 | 107 |  77 |   0 |   0 |-1.623765e+00 |-2.022985e+00 |  24.59%
  0.0s|     1 |     0 |   397 |     - |2256k|   0 |   2 |   0 | 107 |  97 | 109 |  79 |   0 |   0 |-1.623969e+00 |-2.022985e+00 |  24.57%
  0.0s|     1 |     0 |   402 |     - |2269k|   0 |   2 |   0 | 107 |  97 | 111 |  81 |   0 |   0 |-1.623969e+00 |-2.022985e+00 |  24.57%
  0.0s|     1 |     0 |   402 |     - |2269k|   0 |   2 |   0 | 107 |  97 | 111 |  81 |   0 |   0 |-1.624041e+00 |-2.022985e+00 |  24.56%
  0.0s|     1 |     0 |   404 |     - |2280k|   0 |   2 |   0 | 107 |  97 |  93 |  83 |   0 |   0 |-1.624041e+00 |-2.022985e+00 |  24.56%
  0.0s|     1 |     0 |   404 |     - |2280k|   0 |   2 |   0 | 107 |  97 |  93 |  83 |   0 |   0 |-1.624048e+00 |-2.022985e+00 |  24.56%
  0.0s|     1 |     0 |   410 |     - |2290k|   0 |   2 |   0 | 107 |  97 |  96 |  86 |   0 |   0 |-1.633315e+00 |-2.022985e+00 |  23.86%
  0.0s|     1 |     0 |   412 |     - |2300k|   0 |   2 |   0 | 107 |  97 |  97 |  87 |   0 |   0 |-1.636889e+00 |-2.022985e+00 |  23.59%
  0.0s|     1 |     0 |   414 |     - |2300k|   0 |   2 |   0 | 107 |  97 |  99 |  89 |   0 |   0 |-1.637921e+00 |-2.022985e+00 |  23.51%
  0.0s|     1 |     0 |   415 |     - |2301k|   0 |   2 |   0 | 107 |  97 | 100 |  90 |   0 |   0 |-1.638397e+00 |-2.022985e+00 |  23.47%
  0.0s|     1 |     0 |   416 |     - |2301k|   0 |   2 |   0 | 107 |  97 | 101 |  91 |   0 |   0 |-1.638463e+00 |-2.022985e+00 |  23.47%
  0.0s|     1 |     0 |   417 |     - |2303k|   0 |   2 |   0 | 107 |  97 |  82 |  92 |   0 |   0 |-1.638463e+00 |-2.022985e+00 |  23.47%
  0.0s|     1 |     0 |   417 |     - |2303k|   0 |   2 |   0 | 107 |  97 |  82 |  92 |   0 |   0 |-1.638496e+00 |-2.022985e+00 |  23.47%
  0.0s|     1 |     0 |   423 |     - |2305k|   0 |   2 |   0 | 107 |  97 |  85 |  95 |   0 |   0 |-1.642529e+00 |-2.022985e+00 |  23.16%
 time | node  | left  |LP iter|LP it/n| mem |mdpt |frac |extbr|vars |cons |rows |cuts |confs|strbr|  dualbound   | primalbound  |  gap   
  0.0s|     1 |     0 |   426 |     - |2306k|   0 |   2 |   0 | 107 |  97 |  86 |  96 |   0 |   0 |-1.643786e+00 |-2.022985e+00 |  23.07%
  0.0s|     1 |     0 |   426 |     - |2307k|   0 |   2 |   0 | 107 |  97 |  86 |  96 |   0 |   0 |-1.643786e+00 |-2.022985e+00 |  23.07%
  0.0s|     1 |     0 |   428 |     - |2307k|   0 |   2 |   0 | 107 |  97 |  87 |  97 |   0 |   0 |-1.644164e+00 |-2.022985e+00 |  23.04%
  0.0s|     1 |     0 |   429 |     - |2307k|   0 |   2 |   0 | 107 |  97 |  88 |  98 |   0 |   0 |-1.644171e+00 |-2.022985e+00 |  23.04%
  0.0s|     1 |     0 |   430 |     - |2308k|   0 |   2 |   0 | 107 |  97 |  89 |  99 |   0 |   0 |-1.644178e+00 |-2.022985e+00 |  23.04%
  0.0s|     1 |     0 |   431 |     - |2309k|   0 |   2 |   0 | 107 |  97 |  80 | 100 |   0 |   0 |-1.644246e+00 |-2.022985e+00 |  23.03%
  0.0s|     1 |     0 |   432 |     - |2310k|   0 |   2 |   0 | 107 |  97 |  81 | 101 |   0 |   0 |-1.644301e+00 |-2.022985e+00 |  23.03%
  0.0s|     1 |     0 |   433 |     - |2311k|   0 |   2 |   0 | 107 |  97 |  82 | 102 |   0 |   0 |-1.644302e+00 |-2.022985e+00 |  23.03%
  0.0s|     1 |     0 |   434 |     - |2311k|   0 |   2 |   0 | 107 |  97 |  83 | 103 |   0 |   0 |-1.644302e+00 |-2.022985e+00 |  23.03%
  0.0s|     1 |     0 |   435 |     - |2313k|   0 |   2 |   0 | 107 |  97 |  84 | 104 |   0 |   0 |-1.644304e+00 |-2.022985e+00 |  23.03%
  0.0s|     1 |     0 |   440 |     - |2316k|   0 |   2 |   0 | 107 |  97 |  87 | 107 |   0 |   0 |-1.644737e+00 |-2.022985e+00 |  23.00%
  0.0s|     1 |     0 |   441 |     - |2316k|   0 |   2 |   0 | 107 |  97 |  79 | 108 |   0 |   0 |-1.644777e+00 |-2.022985e+00 |  22.99%
  0.0s|     1 |     0 |   442 |     - |2316k|   0 |   2 |   0 | 107 |  97 |  80 | 109 |   0 |   0 |-1.644797e+00 |-2.022985e+00 |  22.99%
  0.0s|     1 |     0 |   446 |     - |2319k|   0 |   2 |   0 | 107 |  97 |  82 | 111 |   0 |   0 |-1.646658e+00 |-2.022985e+00 |  22.85%
  0.0s|     1 |     0 |   447 |     - |2319k|   0 |   2 |   0 | 107 |  97 |  83 | 112 |   0 |   0 |-1.646688e+00 |-2.022985e+00 |  22.85%
 time | node  | left  |LP iter|LP it/n| mem |mdpt |frac |extbr|vars |cons |rows |cuts |confs|strbr|  dualbound   | primalbound  |  gap   
  0.0s|     1 |     0 |   449 |     - |2319k|   0 |   2 |   0 | 107 |  97 |  84 | 113 |   0 |   0 |-1.646699e+00 |-2.022985e+00 |  22.85%
  0.0s|     1 |     0 |   451 |     - |2319k|   0 |   2 |   0 | 107 |  97 |  85 | 114 |   0 |   0 |-1.646702e+00 |-2.022985e+00 |  22.85%
  0.0s|     1 |     0 |   458 |     - |2319k|   0 |   2 |   0 | 107 |  97 |  82 | 116 |   0 |   0 |-1.647187e+00 |-2.022985e+00 |  22.81%
  0.0s|     1 |     0 |   465 |     - |2319k|   0 |   2 |   0 | 107 |  97 |  85 | 119 |   0 |   0 |-1.647819e+00 |-2.022985e+00 |  22.77%
  0.0s|     1 |     0 |   470 |     - |2319k|   0 |   2 |   0 | 107 |  97 |  87 | 121 |   0 |   0 |-1.647840e+00 |-2.022985e+00 |  22.77%
  0.0s|     1 |     0 |   471 |     - |2319k|   0 |   2 |   0 | 107 |  97 |  88 | 122 |   0 |   0 |-1.647850e+00 |-2.022985e+00 |  22.77%
  0.0s|     1 |     0 |   472 |     - |2319k|   0 |   2 |   0 | 107 |  97 |  89 | 123 |   0 |   0 |-1.647855e+00 |-2.022985e+00 |  22.76%
  0.0s|     1 |     0 |   473 |     - |2319k|   0 |   2 |   0 | 107 |  97 |  90 | 124 |   0 |   0 |-1.647857e+00 |-2.022985e+00 |  22.76%
  0.0s|     1 |     0 |   474 |     - |2320k|   0 |   2 |   0 | 107 |  97 |  83 | 125 |   0 |   0 |-1.647860e+00 |-2.022985e+00 |  22.76%
  0.0s|     1 |     0 |   476 |     - |2320k|   0 |   2 |   0 | 107 |  97 |  84 | 126 |   0 |   0 |-1.647879e+00 |-2.022985e+00 |  22.76%
  0.0s|     1 |     0 |   477 |     - |2320k|   0 |   2 |   0 | 107 |  97 |  85 | 127 |   0 |   0 |-1.647881e+00 |-2.022985e+00 |  22.76%
  0.0s|     1 |     0 |   479 |     - |2320k|   0 |   2 |   0 | 107 |  97 |  86 | 128 |   0 |   0 |-1.647889e+00 |-2.022985e+00 |  22.76%
  0.0s|     1 |     0 |   480 |     - |2320k|   0 |   2 |   0 | 107 |  97 |  87 | 129 |   0 |   0 |-1.647896e+00 |-2.022985e+00 |  22.76%
  0.0s|     1 |     0 |   481 |     - |2320k|   0 |   2 |   0 | 107 |  97 |  88 | 130 |   0 |   0 |-1.647897e+00 |-2.022985e+00 |  22.76%
  0.0s|     1 |     0 |   481 |     - |2320k|   0 |   2 |   0 | 107 |  97 |  88 | 130 |   0 |   0 |-1.647897e+00 |-2.022985e+00 |  22.76%
 time | node  | left  |LP iter|LP it/n| mem |mdpt |frac |extbr|vars |cons |rows |cuts |confs|strbr|  dualbound   | primalbound  |  gap   
  0.0s|     1 |     0 |   483 |     - |2320k|   0 |   2 |   0 | 107 |  97 |  78 | 132 |   0 |   0 |-1.647897e+00 |-2.022985e+00 |  22.76%
  0.0s|     1 |     0 |   484 |     - |2320k|   0 |   2 |   0 | 107 |  97 |  79 | 133 |   0 |   0 |-1.647897e+00 |-2.022985e+00 |  22.76%
  0.0s|     1 |     0 |   484 |     - |2320k|   0 |   2 |   0 | 107 |  97 |  79 | 133 |   0 |   0 |-1.647897e+00 |-2.022985e+00 |  22.76%
  0.0s|     1 |     0 |   485 |     - |2320k|   0 |   2 |   0 | 107 |  97 |  80 | 134 |   0 |   0 |-1.647897e+00 |-2.022985e+00 |  22.76%
Exception of type: TOO_FEW_DOF in file "../../../../Ipopt/src/Interfaces/IpIpoptApplication.cpp" at line 891:
 Exception message: status != TOO_FEW_DEGREES_OF_FREEDOM evaluated false: Too few degrees of freedom (rethrown)!
  0.0s|     1 |     2 |   490 |     - |2377k|   0 |   2 |   0 | 107 |  97 |  80 | 134 |   0 |   2 |-1.647897e+00 |-2.022985e+00 |  22.76%
  0.0s|   100 |    99 |  3049 |  26.5 |3172k|  17 |   0 |  29 | 107 |  97 | 115 |1583 |   0 |   2 |-1.704531e+00 |-2.022985e+00 |  18.68%
L 1.0s|   195 |   194 |  6832 |  33.0 |4338k|  20 |   0 |  12 | 107 |  97 | 202 |3525 |   0 |   2 |-1.704531e+00 |-2.009936e+00 |  17.92%
  1.0s|   200 |   199 |  6968 |  32.9 |4354k|  20 |   0 |  12 | 107 |  97 | 160 |3601 |   0 |   2 |-1.704531e+00 |-2.009936e+00 |  17.92%
y 1.0s|   280 |   269 |  9944 |  34.1 |4689k|  20 |   0 |  19 | 107 |  97 | 159 |5181 |   0 |   2 |-1.704531e+00 |-1.863759e+00 |   9.34%
  1.0s|   300 |   289 | 11011 |  35.4 |4759k|  20 |   0 |   6 | 107 |  97 | 180 |5718 |   0 |   2 |-1.704531e+00 |-1.863759e+00 |   9.34%
g 1.0s|   400 |   231 | 14974 |  36.5 |6901k|  20 |   0 |  22 | 107 |  91 | 180 |7834 |   0 |   2 |-1.704531e+00 |-1.820253e+00 |   6.79%
  2.0s|   500 |   253 | 18344 |  35.9 |6928k|  20 |   0 |  12 | 107 |  91 | 174 |9693 |   0 |   2 |-1.704531e+00 |-1.820253e+00 |   6.79%
  2.0s|   600 |   309 | 20664 |  33.8 |7027k|  20 |   0 |  44 | 107 |  91 | 158 |  11k|   0 |   2 |-1.704531e+00 |-1.820253e+00 |   6.79%
  2.0s|   700 |   367 | 23566 |  33.1 |7178k|  20 |   0 |  14 | 107 |  91 | 152 |  12k|   0 |   2 |-1.704531e+00 |-1.820253e+00 |   6.79%
  3.0s|   800 |   415 | 27217 |  33.5 |7446k|  20 |   0 |  28 | 107 |  91 | 183 |  14k|   0 |   2 |-1.704531e+00 |-1.820253e+00 |   6.79%
 time | node  | left  |LP iter|LP it/n| mem |mdpt |frac |extbr|vars |cons |rows |cuts |confs|strbr|  dualbound   | primalbound  |  gap   
  3.0s|   900 |   457 | 30099 |  33.0 |7731k|  20 |   0 |  33 | 107 |  91 | 125 |  16k|   0 |   2 |-1.704531e+00 |-1.820253e+00 |   6.79%
  3.0s|  1000 |   493 | 33115 |  32.7 |9022k|  20 |   - |   0 | 107 |  91 | 158 |  18k|   0 |   2 |-1.704531e+00 |-1.820253e+00 |   6.79%
  3.0s|  1100 |   511 | 35139 |  31.6 |9157k|  20 |   0 |  28 | 107 |  91 | 137 |  19k|   0 |   2 |-1.708680e+00 |-1.820253e+00 |   6.53%
  4.0s|  1200 |   535 | 37378 |  30.8 |9663k|  20 |   0 |  31 | 107 |  91 | 118 |  21k|   0 |   2 |-1.735758e+00 |-1.820253e+00 |   4.87%
  4.0s|  1300 |   575 | 38416 |  29.2 |  10M|  20 |   - |   0 | 107 |  91 | 131 |  21k|   0 |   2 |-1.744734e+00 |-1.820253e+00 |   4.33%
  4.0s|  1400 |   581 | 39639 |  28.0 |  10M|  20 |   - |   0 | 107 |  91 | 142 |  22k|   0 |   2 |-1.751402e+00 |-1.820253e+00 |   3.93%
  4.0s|  1500 |   635 | 40935 |  27.0 |  10M|  20 |   - |   0 | 107 |  91 | 139 |  23k|   0 |   2 |-1.756382e+00 |-1.820253e+00 |   3.64%
  4.0s|  1600 |   673 | 43268 |  26.8 |  11M|  20 |   - |   0 | 107 |  91 | 135 |  25k|   0 |   2 |-1.756682e+00 |-1.820253e+00 |   3.62%
  5.0s|  1700 |   701 | 45166 |  26.3 |  11M|  20 |   0 |  32 | 107 |  91 | 162 |  26k|   0 |   2 |-1.756682e+00 |-1.820253e+00 |   3.62%
  5.0s|  1800 |   709 | 47529 |  26.2 |  11M|  20 |   - |   0 | 107 |  91 | 180 |  27k|   0 |   2 |-1.756781e+00 |-1.820253e+00 |   3.61%
  5.0s|  1900 |   721 | 49737 |  26.0 |  12M|  20 |   - |   0 | 107 |  91 | 167 |  29k|   0 |   2 |-1.756782e+00 |-1.820253e+00 |   3.61%
  5.0s|  2000 |   729 | 52050 |  25.8 |  13M|  20 |   0 |  43 | 107 |  91 | 142 |  30k|   0 |   2 |-1.757211e+00 |-1.820253e+00 |   3.59%
* 5.0s|  2037 |   717 | 52691 |  25.7 |  13M|  20 |   - |   0 | 107 |  91 | 189 |  30k|   0 |   2 |-1.757211e+00 |-1.820252e+00 |   3.59%
  6.0s|  2100 |   726 | 53571 |  25.3 |  13M|  20 |   0 |  37 | 107 |  91 | 154 |  31k|   0 |   2 |-1.757708e+00 |-1.820252e+00 |   3.56%
  6.0s|  2200 |   712 | 56086 |  25.3 |  13M|  20 |   0 |  36 | 107 |  91 | 157 |  32k|   0 |   2 |-1.762895e+00 |-1.820252e+00 |   3.25%
 time | node  | left  |LP iter|LP it/n| mem |mdpt |frac |extbr|vars |cons |rows |cuts |confs|strbr|  dualbound   | primalbound  |  gap   
  6.0s|  2300 |   704 | 56908 |  24.6 |  13M|  20 |   - |   0 | 107 |  91 | 149 |  33k|   0 |   2 |-1.762895e+00 |-1.820252e+00 |   3.25%
  6.0s|  2400 |   690 | 58383 |  24.2 |  13M|  20 |   - |   0 | 107 |  91 | 169 |  34k|   0 |   2 |-1.764417e+00 |-1.820252e+00 |   3.16%
  6.0s|  2500 |   700 | 60830 |  24.2 |  13M|  20 |   0 |  35 | 107 |  91 | 179 |  35k|   0 |   2 |-1.764417e+00 |-1.820252e+00 |   3.16%
  7.0s|  2600 |   708 | 62726 |  24.0 |  14M|  20 |   0 |  43 | 107 |  91 | 145 |  37k|   0 |   2 |-1.764418e+00 |-1.820252e+00 |   3.16%
  7.0s|  2700 |   674 | 63981 |  23.5 |  14M|  20 |   - |   0 | 107 |  91 | 143 |  38k|   0 |   2 |-1.772206e+00 |-1.820252e+00 |   2.71%
  7.0s|  2800 |   654 | 65547 |  23.3 |  14M|  20 |   0 |  16 | 107 |  91 | 176 |  39k|   0 |   2 |-1.775374e+00 |-1.820252e+00 |   2.53%
* 7.0s|  2830 |   636 | 66030 |  23.2 |  14M|  21 |   - |   0 | 107 |  91 | 207 |  39k|   0 |   2 |-1.775375e+00 |-1.820250e+00 |   2.53%
  7.0s|  2900 |   620 | 67143 |  23.0 |  14M|  22 |   - |   0 | 107 |  91 | 169 |  40k|   0 |   2 |-1.775735e+00 |-1.820250e+00 |   2.51%
  7.0s|  3000 |   616 | 69214 |  22.9 |  14M|  22 |   0 |  30 | 107 |  91 | 223 |  41k|   0 |   2 |-1.789740e+00 |-1.820250e+00 |   1.70%
  8.0s|  3100 |   648 | 73392 |  23.5 |  14M|  22 |   0 |  51 | 107 |  91 | 151 |  43k|   0 |   2 |-1.795691e+00 |-1.820250e+00 |   1.37%
  8.0s|  3200 |   688 | 77827 |  24.2 |  14M|  22 |   0 |  21 | 107 |  91 | 169 |  45k|   0 |   2 |-1.795691e+00 |-1.820250e+00 |   1.37%
  9.0s|  3300 |   724 | 81265 |  24.5 |  14M|  22 |   - |   0 | 107 |  91 | 215 |  47k|   0 |   2 |-1.795693e+00 |-1.820250e+00 |   1.37%
  9.0s|  3400 |   712 | 84297 |  24.7 |  14M|  22 |   - |   0 | 107 |  91 | 199 |  48k|   0 |   2 |-1.796183e+00 |-1.820250e+00 |   1.34%
  9.0s|  3500 |   694 | 87087 |  24.8 |  14M|  23 |   - |   0 | 107 |  91 | 211 |  50k|   0 |   2 |-1.797588e+00 |-1.820250e+00 |   1.26%
 10.0s|  3600 |   658 | 88906 |  24.6 |  14M|  23 |   - |   0 | 107 |  91 | 176 |  51k|   0 |   2 |-1.798155e+00 |-1.820250e+00 |   1.23%
 time | node  | left  |LP iter|LP it/n| mem |mdpt |frac |extbr|vars |cons |rows |cuts |confs|strbr|  dualbound   | primalbound  |  gap   
 10.0s|  3700 |   630 | 91286 |  24.6 |  15M|  24 |   - |   0 | 107 |  91 | 190 |  52k|   0 |   2 |-1.798198e+00 |-1.820250e+00 |   1.23%
 10.0s|  3800 |   624 | 94291 |  24.7 |  15M|  24 |   - |   0 | 107 |  91 | 199 |  53k|   0 |   2 |-1.798215e+00 |-1.820250e+00 |   1.23%
 10.0s|  3900 |   620 | 96988 |  24.8 |  15M|  24 |   - |   0 | 107 |  91 | 214 |  55k|   0 |   2 |-1.798712e+00 |-1.820250e+00 |   1.20%
 10.0s|  4000 |   570 | 98043 |  24.4 |  15M|  24 |   - |   0 | 107 |  91 | 160 |  55k|   0 |   2 |-1.799836e+00 |-1.820250e+00 |   1.13%
 11.0s|  4100 |   518 | 99388 |  24.1 |  15M|  24 |   0 |  35 | 107 |  91 | 123 |  56k|   0 |   2 |-1.802655e+00 |-1.820250e+00 |   0.98%
 11.0s|  4200 |   490 |100963 |  23.9 |  15M|  24 |   0 |  19 | 107 |  91 | 183 |  57k|   0 |   2 |-1.803722e+00 |-1.820250e+00 |   0.92%
 11.0s|  4300 |   466 |102897 |  23.8 |  15M|  24 |   - |   0 | 107 |  91 | 188 |  58k|   0 |   2 |-1.803931e+00 |-1.820250e+00 |   0.90%
 11.0s|  4400 |   438 |104588 |  23.7 |  15M|  24 |   - |   0 | 107 |  91 | 218 |  59k|   0 |   2 |-1.806750e+00 |-1.820250e+00 |   0.75%
 11.0s|  4500 |   386 |106070 |  23.5 |  15M|  24 |   - |   0 | 107 |  91 | 190 |  60k|   0 |   2 |-1.807260e+00 |-1.820250e+00 |   0.72%
 12.0s|  4600 |   342 |107543 |  23.3 |  15M|  25 |   - |   0 | 107 |  91 | 187 |  61k|   0 |   2 |-1.809867e+00 |-1.820250e+00 |   0.57%
 12.0s|  4700 |   300 |108509 |  23.0 |  15M|  25 |   - |   0 | 107 |  91 | 198 |  61k|   0 |   2 |-1.813380e+00 |-1.820250e+00 |   0.38%
 12.0s|  4800 |   254 |109222 |  22.7 |  15M|  25 |   - |   0 | 107 |  91 | 173 |  62k|   0 |   2 |-1.814170e+00 |-1.820250e+00 |   0.34%
 12.0s|  4900 |   186 |110459 |  22.5 |  15M|  25 |   - |   0 | 107 |  91 | 147 |  63k|   0 |   2 |-1.814420e+00 |-1.820250e+00 |   0.32%
 12.0s|  5000 |   108 |111824 |  22.3 |  15M|  25 |   - |   0 | 107 |  91 | 205 |  63k|   0 |   2 |-1.814488e+00 |-1.820250e+00 |   0.32%
*12.0s|  5045 |    80 |112081 |  22.1 |  15M|  26 |   - |   0 | 107 |  91 | 206 |  63k|   0 |   2 |-1.814548e+00 |-1.820250e+00 |   0.31%
 time | node  | left  |LP iter|LP it/n| mem |mdpt |frac |extbr|vars |cons |rows |cuts |confs|strbr|  dualbound   | primalbound  |  gap   
 12.0s|  5100 |    33 |112371 |  22.0 |  15M|  26 |   - |   0 | 107 |  91 | 264 |  63k|   0 |   2 |-1.815070e+00 |-1.820250e+00 |   0.29%

SCIP Status        : solving was interrupted [gap limit reached]
Solving Time (sec) : 12.00
Solving Nodes      : 5134
Primal Bound       : -1.82025006883754e+00 (8 solutions)
Dual Bound         : -1.82024763942173e+00
Gap                : 0.00 %


--- Restarting execution
--- Doptimal_MINLP.gms(185) 2 Mb
--- Reading solution for model D_opt
***
*** Solver did not provide marginals for model D_opt
***
--- Executing after solve: elapsed 0:00:12.842
--- Doptimal_MINLP.gms(190) 3 Mb
*** Status: Normal completion
--- Job Doptimal_MINLP.gms Stop 03/20/19 09:41:29 elapsed 0:00:12.853
